(declare-fun var0 () String)
(assert (RegexIn var0 (RegexConcat (RegexStar (RegexPlus (RegexUnion (RegexPlus (RegexPlus (RegexUnion (RegexStar (RegexPlus (RegexPlus (RegexStar (RegexPlus (RegexPlus (RegexUnion (RegexStar (RegexPlus (RegexStar (Str2Reg "GGGGG")))) (RegexPlus (RegexPlus (RegexUnion (Str2Reg "HHHH") (Str2Reg "IIIII"))))))))))) (RegexUnion (RegexStar (RegexPlus (RegexStar (RegexPlus (RegexUnion (RegexStar (RegexUnion (RegexPlus (RegexUnion (Str2Reg "JJJ") (Str2Reg "KK"))) (RegexStar (RegexUnion (Str2Reg "LLLL") (Str2Reg "MM"))))) (RegexPlus (RegexUnion (RegexPlus (RegexPlus (Str2Reg "NNNN"))) (RegexPlus (RegexPlus (Str2Reg "OO")))))))))) (RegexPlus (RegexUnion (RegexPlus (RegexPlus (RegexPlus (RegexStar (RegexStar (RegexStar (RegexStar (Str2Reg "PP")))))))) (RegexUnion (RegexPlus (RegexStar (RegexUnion (RegexStar (RegexPlus (RegexStar (Str2Reg "QQ")))) (RegexUnion (RegexStar (RegexPlus (Str2Reg "RR"))) (RegexPlus (RegexStar (Str2Reg "SSSSS"))))))) (RegexUnion (RegexStar (RegexPlus (RegexUnion (RegexUnion (RegexUnion (Str2Reg "TTT") (Str2Reg "UUU")) (RegexStar (Str2Reg "VVVV"))) (RegexStar (RegexPlus (Str2Reg "WW")))))) (RegexStar (RegexStar (RegexStar (RegexStar (RegexStar (Str2Reg "XXX")))))))))))))) (RegexUnion (RegexPlus (RegexUnion (RegexPlus (RegexPlus (RegexStar (RegexUnion (RegexPlus (RegexUnion (RegexUnion (RegexUnion (RegexUnion (RegexPlus (Str2Reg "YYYY")) (RegexStar (Str2Reg "ZZZZ"))) (RegexUnion (RegexUnion (Str2Reg "!!") (Str2Reg "\"\"\"\"\"")) (RegexPlus (Str2Reg "##")))) (RegexPlus (RegexPlus (RegexStar (Str2Reg "$$$"))))) (RegexStar (RegexUnion (RegexStar (RegexPlus (Str2Reg "%%%"))) (RegexStar (RegexUnion (Str2Reg "&&") (Str2Reg "''''"))))))) (RegexPlus (RegexStar (RegexPlus (RegexPlus (RegexUnion (RegexPlus (Str2Reg "((((")) (RegexPlus (Str2Reg ")))"))))))))))) (RegexUnion (RegexUnion (RegexUnion (RegexPlus (RegexUnion (RegexUnion (RegexPlus (RegexUnion (RegexStar (RegexStar (Str2Reg "**"))) (RegexStar (RegexPlus (Str2Reg "++"))))) (RegexPlus (RegexPlus (RegexStar (RegexStar (Str2Reg ",,")))))) (RegexStar (RegexPlus (RegexStar (RegexPlus (RegexStar (Str2Reg "---")))))))) (RegexUnion (RegexStar (RegexUnion (RegexStar (RegexUnion (RegexUnion (RegexUnion (Str2Reg "....") (Str2Reg "/////")) (RegexPlus (Str2Reg ":::::"))) (RegexStar (RegexStar (Str2Reg ";;;;"))))) (RegexPlus (RegexPlus (RegexUnion (RegexStar (Str2Reg "<<<")) (RegexPlus (Str2Reg "=="))))))) (RegexStar (RegexPlus (RegexStar (RegexUnion (RegexStar (RegexUnion (Str2Reg ">>") (Str2Reg "?????"))) (RegexUnion (RegexUnion (Str2Reg "@@@") (Str2Reg "[[[[[")) (RegexUnion (Str2Reg "\\\\\\\\\\") (Str2Reg "]]"))))))))) (RegexPlus (RegexPlus (RegexPlus (RegexPlus (RegexUnion (RegexPlus (RegexPlus (RegexStar (Str2Reg "^^^")))) (RegexUnion (RegexUnion (RegexStar (Str2Reg "_____")) (RegexUnion (Str2Reg "````") (Str2Reg "{{{"))) (RegexStar (RegexStar (Str2Reg "|||||")))))))))) (RegexPlus (RegexPlus (RegexPlus (RegexPlus (RegexStar (RegexUnion (RegexPlus (RegexPlus (RegexUnion (Str2Reg "}}}}}") (Str2Reg "~~~~~")))) (RegexPlus (RegexStar (RegexUnion (Str2Reg "000") (Str2Reg "1111"))))))))))))) (RegexUnion (RegexStar (RegexPlus (RegexStar (RegexUnion (RegexStar (RegexStar (RegexStar (RegexStar (RegexUnion (RegexUnion (RegexStar (Str2Reg "22222")) (RegexPlus (Str2Reg "3333"))) (RegexUnion (RegexStar (Str2Reg "444")) (RegexUnion (Str2Reg "555") (Str2Reg "6666")))))))) (RegexStar (RegexStar (RegexUnion (RegexPlus (RegexStar (RegexStar (RegexUnion (Str2Reg "77") (Str2Reg "88"))))) (RegexPlus (RegexStar (RegexPlus (RegexUnion (Str2Reg "99999") (Str2Reg "aaaaa")))))))))))) (RegexUnion (RegexUnion (RegexPlus (RegexStar (RegexPlus (RegexPlus (RegexStar (RegexStar (RegexStar (RegexUnion (RegexPlus (Str2Reg "bbbb")) (RegexStar (Str2Reg "cc")))))))))) (RegexStar (RegexUnion (RegexStar (RegexUnion (RegexStar (RegexUnion (RegexPlus (RegexStar (RegexStar (Str2Reg "dddd")))) (RegexStar (RegexUnion (RegexPlus (Str2Reg "eeee")) (RegexStar (Str2Reg "ff")))))) (RegexPlus (RegexUnion (RegexUnion (RegexPlus (RegexUnion (Str2Reg "ggggg") (Str2Reg "hhh"))) (RegexPlus (RegexPlus (Str2Reg "ii")))) (RegexPlus (RegexUnion (RegexStar (Str2Reg "jjjjj")) (RegexUnion (Str2Reg "kkkk") (Str2Reg "ll")))))))) (RegexUnion (RegexStar (RegexStar (RegexPlus (RegexUnion (RegexUnion (RegexStar (Str2Reg "mm")) (RegexPlus (Str2Reg "nnnn"))) (RegexUnion (RegexPlus (Str2Reg "ooo")) (RegexPlus (Str2Reg "pppp"))))))) (RegexPlus (RegexUnion (RegexStar (RegexStar (RegexUnion (RegexUnion (Str2Reg "qq") (Str2Reg "rrrr")) (RegexUnion (Str2Reg "sss") (Str2Reg "tttt"))))) (RegexStar (RegexUnion (RegexPlus (RegexUnion (Str2Reg "uuu") (Str2Reg "vvvv"))) (RegexUnion (RegexStar (Str2Reg "wwwww")) (RegexPlus (Str2Reg "xxxxx"))))))))))) (RegexUnion (RegexPlus (RegexPlus (RegexPlus (RegexPlus (RegexStar (RegexStar (RegexStar (RegexStar (RegexUnion (Str2Reg "yyyy") (Str2Reg "zzz")))))))))) (RegexPlus (RegexUnion (RegexStar (RegexStar (RegexPlus (RegexPlus (RegexStar (RegexStar (RegexPlus (Str2Reg "AAAA")))))))) (RegexUnion (RegexStar (RegexUnion (RegexStar (RegexStar (RegexPlus (RegexUnion (Str2Reg "BBB") (Str2Reg "CC"))))) (RegexUnion (RegexPlus (RegexStar (RegexPlus (Str2Reg "DDD")))) (RegexStar (RegexUnion (RegexStar (Str2Reg "EEEEE")) (RegexPlus (Str2Reg "FF"))))))) (RegexUnion (RegexPlus (RegexPlus (RegexPlus (RegexUnion (RegexPlus (Str2Reg "GGGGG")) (RegexPlus (Str2Reg "HHHHH")))))) (RegexPlus (RegexStar (RegexStar (RegexUnion (RegexStar (Str2Reg "IIIII")) (RegexStar (Str2Reg "JJJJJ"))))))))))))))))) (RegexPlus (RegexStar (RegexStar (RegexUnion (RegexUnion (RegexStar (RegexPlus (RegexStar (RegexPlus (RegexPlus (RegexStar (RegexPlus (RegexUnion (RegexPlus (RegexStar (RegexStar (Str2Reg "00000")))) (RegexUnion (RegexUnion (RegexPlus (Str2Reg "11111")) (RegexPlus (Str2Reg "222"))) (RegexStar (RegexPlus (Str2Reg "3333")))))))))))) (RegexStar (RegexUnion (RegexStar (RegexStar (RegexStar (RegexStar (RegexStar (RegexPlus (RegexPlus (RegexStar (RegexUnion (Str2Reg "444") (Str2Reg "555")))))))))) (RegexUnion (RegexStar (RegexStar (RegexStar (RegexPlus (RegexStar (RegexStar (RegexStar (RegexPlus (Str2Reg "6666"))))))))) (RegexUnion (RegexStar (RegexStar (RegexPlus (RegexUnion (RegexStar (RegexUnion (RegexStar (Str2Reg "7777")) (RegexUnion (Str2Reg "88") (Str2Reg "999")))) (RegexPlus (RegexUnion (RegexStar (Str2Reg "aaa")) (RegexUnion (Str2Reg "bbb") (Str2Reg "ccc")))))))) (RegexPlus (RegexUnion (RegexUnion (RegexPlus (RegexStar (RegexUnion (RegexStar (Str2Reg "ddd")) (RegexPlus (Str2Reg "eeeee"))))) (RegexUnion (RegexStar (RegexUnion (RegexStar (Str2Reg "ffff")) (RegexStar (Str2Reg "gg")))) (RegexPlus (RegexStar (RegexStar (Str2Reg "hh")))))) (RegexUnion (RegexPlus (RegexPlus (RegexStar (RegexUnion (Str2Reg "iii") (Str2Reg "jjj"))))) (RegexPlus (RegexPlus (RegexUnion (RegexStar (Str2Reg "kkkkk")) (RegexUnion (Str2Reg "llll") (Str2Reg "mmmmm"))))))))))))) (RegexUnion (RegexPlus (RegexUnion (RegexUnion (RegexPlus (RegexPlus (RegexUnion (RegexUnion (RegexUnion (RegexPlus (RegexStar (RegexUnion (Str2Reg "nn") (Str2Reg "oooo")))) (RegexUnion (RegexUnion (RegexStar (Str2Reg "ppppp")) (RegexUnion (Str2Reg "qq") (Str2Reg "rrr"))) (RegexStar (RegexStar (Str2Reg "ssss"))))) (RegexUnion (RegexUnion (RegexUnion (RegexStar (Str2Reg "ttt")) (RegexPlus (Str2Reg "uu"))) (RegexPlus (RegexUnion (Str2Reg "vvv") (Str2Reg "www")))) (RegexUnion (RegexUnion (RegexPlus (Str2Reg "xx")) (RegexPlus (Str2Reg "yyyy"))) (RegexUnion (RegexStar (Str2Reg "zz")) (RegexUnion (Str2Reg "AAAAA") (Str2Reg "BBBB")))))) (RegexUnion (RegexPlus (RegexStar (RegexPlus (RegexStar (Str2Reg "CCCC"))))) (RegexUnion (RegexPlus (RegexStar (RegexPlus (Str2Reg "DD")))) (RegexPlus (RegexUnion (RegexPlus (Str2Reg "EEEEE")) (RegexUnion (Str2Reg "FF") (Str2Reg "GGG"))))))))) (RegexPlus (RegexUnion (RegexPlus (RegexUnion (RegexUnion (RegexUnion (RegexStar (RegexPlus (Str2Reg "HHHHH"))) (RegexPlus (RegexPlus (Str2Reg "III")))) (RegexPlus (RegexStar (RegexStar (Str2Reg "JJ"))))) (RegexPlus (RegexUnion (RegexStar (RegexUnion (Str2Reg "KKKK") (Str2Reg "LLL"))) (RegexUnion (RegexStar (Str2Reg "MMMM")) (RegexPlus (Str2Reg "NNNNN"))))))) (RegexPlus (RegexPlus (RegexPlus (RegexPlus (RegexPlus (RegexUnion (Str2Reg "OOOO") (Str2Reg "PP")))))))))) (RegexStar (RegexPlus (RegexUnion (RegexStar (RegexPlus (RegexStar (RegexPlus (RegexUnion (RegexUnion (Str2Reg "QQ") (Str2Reg "RRR")) (RegexUnion (Str2Reg "SSSSS") (Str2Reg "TTT"))))))) (RegexUnion (RegexUnion (RegexPlus (RegexStar (RegexUnion (RegexUnion (Str2Reg "UU") (Str2Reg "VVV")) (RegexStar (Str2Reg "WWWWW"))))) (RegexPlus (RegexPlus (RegexPlus (RegexPlus (Str2Reg "XXX")))))) (RegexPlus (RegexPlus (RegexStar (RegexStar (RegexStar (Str2Reg "YYY")))))))))))) (RegexUnion (RegexUnion (RegexUnion (RegexUnion (RegexPlus (RegexPlus (RegexStar (RegexPlus (RegexUnion (RegexStar (RegexUnion (Str2Reg "ZZZZZ") (Str2Reg "!!!!!"))) (RegexUnion (RegexStar (Str2Reg "\"\"\"\"")) (RegexUnion (Str2Reg "##") (Str2Reg "$$$$$")))))))) (RegexUnion (RegexUnion (RegexStar (RegexStar (RegexUnion (RegexPlus (RegexStar (Str2Reg "%%%%"))) (RegexUnion (RegexUnion (Str2Reg "&&&&&") (Str2Reg "''''")) (RegexStar (Str2Reg "((((")))))) (RegexPlus (RegexUnion (RegexPlus (RegexStar (RegexUnion (Str2Reg "))") (Str2Reg "**")))) (RegexUnion (RegexStar (RegexUnion (Str2Reg "++++") (Str2Reg ",,,"))) (RegexPlus (RegexStar (Str2Reg "---"))))))) (RegexStar (RegexUnion (RegexUnion (RegexStar (RegexStar (RegexUnion (Str2Reg "..") (Str2Reg "//")))) (RegexStar (RegexStar (RegexPlus (Str2Reg ":::"))))) (RegexUnion (RegexPlus (RegexUnion (RegexUnion (Str2Reg ";;;;;") (Str2Reg "<<<<<")) (RegexStar (Str2Reg "=====")))) (RegexPlus (RegexPlus (RegexUnion (Str2Reg ">>>>>") (Str2Reg "????"))))))))) (RegexStar (RegexPlus (RegexUnion (RegexStar (RegexStar (RegexPlus (RegexPlus (RegexUnion (Str2Reg "@@") (Str2Reg "[[[[[")))))) (RegexUnion (RegexStar (RegexUnion (RegexPlus (RegexUnion (Str2Reg "\\\\\\") (Str2Reg "]]]]"))) (RegexPlus (RegexUnion (Str2Reg "^^") (Str2Reg "__"))))) (RegexPlus (RegexUnion (RegexStar (RegexStar (Str2Reg "``"))) (RegexPlus (RegexUnion (Str2Reg "{{{") (Str2Reg "||||")))))))))) (RegexPlus (RegexUnion (RegexUnion (RegexUnion (RegexUnion (RegexUnion (RegexStar (RegexStar (RegexPlus (Str2Reg "}}}")))) (RegexPlus (RegexUnion (RegexStar (Str2Reg "~~")) (RegexStar (Str2Reg "00"))))) (RegexUnion (RegexStar (RegexUnion (RegexStar (Str2Reg "111")) (RegexPlus (Str2Reg "22")))) (RegexPlus (RegexStar (RegexUnion (Str2Reg "3333") (Str2Reg "444")))))) (RegexUnion (RegexStar (RegexUnion (RegexStar (RegexPlus (Str2Reg "55555"))) (RegexUnion (RegexStar (Str2Reg "66666")) (RegexPlus (Str2Reg "7777"))))) (RegexPlus (RegexUnion (RegexPlus (RegexUnion (Str2Reg "88") (Str2Reg "9999"))) (RegexStar (RegexUnion (Str2Reg "aa") (Str2Reg "bbbbb"))))))) (RegexUnion (RegexStar (RegexPlus (RegexPlus (RegexStar (RegexPlus (Str2Reg "ccc")))))) (RegexPlus (RegexStar (RegexUnion (RegexUnion (RegexUnion (Str2Reg "ddddd") (Str2Reg "ee")) (RegexStar (Str2Reg "ff"))) (RegexUnion (RegexPlus (Str2Reg "ggg")) (RegexPlus (Str2Reg "hh")))))))) (RegexStar (RegexUnion (RegexUnion (RegexPlus (RegexStar (RegexUnion (RegexStar (Str2Reg "iii")) (RegexUnion (Str2Reg "jjjjj") (Str2Reg "kkkkk"))))) (RegexStar (RegexUnion (RegexPlus (RegexUnion (Str2Reg "lllll") (Str2Reg "mmmm"))) (RegexPlus (RegexPlus (Str2Reg "nnnn")))))) (RegexStar (RegexStar (RegexUnion (RegexPlus (RegexUnion (Str2Reg "ooo") (Str2Reg "pp"))) (RegexUnion (RegexPlus (Str2Reg "qqqq")) (RegexStar (Str2Reg "rrr"))))))))))) (RegexUnion (RegexPlus (RegexUnion (RegexStar (RegexStar (RegexUnion (RegexStar (RegexUnion (RegexPlus (RegexStar (Str2Reg "sssss"))) (RegexStar (RegexStar (Str2Reg "tttt"))))) (RegexStar (RegexStar (RegexUnion (RegexPlus (Str2Reg "uu")) (RegexPlus (Str2Reg "vv")))))))) (RegexPlus (RegexPlus (RegexStar (RegexUnion (RegexPlus (RegexUnion (RegexPlus (Str2Reg "ww")) (RegexPlus (Str2Reg "xxxx")))) (RegexUnion (RegexPlus (RegexPlus (Str2Reg "yyyy"))) (RegexStar (RegexPlus (Str2Reg "zzz")))))))))) (RegexStar (RegexPlus (RegexUnion (RegexStar (RegexPlus (RegexStar (RegexUnion (RegexPlus (RegexUnion (Str2Reg "AAAA") (Str2Reg "BBBBB"))) (RegexStar (RegexStar (Str2Reg "CCCC"))))))) (RegexPlus (RegexPlus (RegexUnion (RegexPlus (RegexStar (RegexPlus (Str2Reg "DDDDD")))) (RegexStar (RegexUnion (RegexPlus (Str2Reg "EEEEE")) (RegexStar (Str2Reg "FFF"))))))))))))))))))))
(assert (<= 15 (Length var0)))
(check-sat)